Running for instance ./models/r203.txt
Generating routes...
Execution time:  3.188461  seconds
Academic license - for non-commercial use only
Warning: constraint name "Cliente esta na rota x1" has a space
Optimize a model with 26 rows, 10000 columns and 93755 nonzeros
Variable types: 0 continuous, 10000 integer (0 binary)
Coefficient statistics:
  Matrix range     [1e+00, 1e+00]
  Objective range  [2e+01, 5e+02]
  Bounds range     [1e+00, 1e+00]
  RHS range        [1e+00, 2e+01]
Found heuristic solution: objective 745.3572088
Presolve removed 1 rows and 1199 columns
Presolve time: 0.10s
Presolved: 25 rows, 8801 columns, 74439 nonzeros
Variable types: 0 continuous, 8801 integer (8801 binary)

Root relaxation: objective 5.114386e+02, 86 iterations, 0.01 seconds

    Nodes    |    Current Node    |     Objective Bounds      |     Work
 Expl Unexpl |  Obj  Depth IntInf | Incumbent    BestBd   Gap | It/Node Time

     0     0  511.43863    0    8  745.35721  511.43863  31.4%     -    0s
H    0     0                     592.6218493  511.43863  13.7%     -    0s
     0     0  511.43863    0    8  592.62185  511.43863  13.7%     -    0s
H    0     0                     537.2939066  511.43863  4.81%     -    0s
     0     0  525.07759    0   13  537.29391  525.07759  2.27%     -    0s
     0     0     cutoff    0       537.29391  537.29391  0.00%     -    0s

Explored 1 nodes (125 simplex iterations) in 0.28 seconds
Thread count was 8 (of 8 available processors)

Solution count 3: 537.294 592.622 745.357 

Optimal solution found (tolerance 1.00e-04)
Best objective 5.372939065967e+02, best bound 5.372939065967e+02, gap 0.0000%

Routes:
21 4 25 24 3 2
6 8 17 14 16 5 18 7 1 20 12
19 11 9 10
15 23 22 13

Distance: 537.293906597
Execution time:  4.361256  seconds
